3
step=0 E=0
O     -0.050000     0.011803    -0.026393
H      0.770405    -0.026393     0.539694
H     -0.784995     0.035410     0.501498
3
step=1 E=6.4880e0
O     -0.048474     0.011723    -0.024429
H      0.765920    -0.026200     0.538138
H     -0.782035     0.035298     0.501090
3
step=11 E=4.7462e-1
O     -0.014559     0.009965     0.016401
H      0.677552    -0.022372     0.505103
H     -0.727584     0.033228     0.493294
3
step=21 E=2.3616e-2
O     -0.018369     0.010152     0.012877
H      0.697211    -0.023182     0.508359
H     -0.743432     0.033851     0.493563
3
step=31 E=1.9259e-3
O     -0.018132     0.010110     0.016026
H      0.696308    -0.023129     0.506684
H     -0.742765     0.033839     0.492088
3
step=41 E=6.1675e-4
O     -0.018149     0.010093     0.017753
H      0.695980    -0.023107     0.505817
H     -0.742421     0.033835     0.491229
3
step=51 E=1.7983e-4
O     -0.018160     0.010089     0.018159
H      0.696901    -0.023142     0.505626
H     -0.743330     0.033873     0.491014
3
step=61 E=5.0151e-5
O     -0.018162     0.010085     0.018619
H      0.696618    -0.023128     0.505392
H     -0.743046     0.033864     0.490788
3
step=71 E=1.3250e-5
O     -0.018164     0.010084     0.018703
H      0.696847    -0.023137     0.505352
H     -0.743273     0.033873     0.490743
3
step=81 E=3.7936e-6
O     -0.018165     0.010083     0.018842
H      0.696795    -0.023134     0.505282
H     -0.743220     0.033872     0.490674
3
step=91 E=9.2246e-7
O     -0.018165     0.010082     0.018864
H      0.696855    -0.023136     0.505272
H     -0.743280     0.033874     0.490663
3
step=101 E=2.2017e-7
O     -0.018166     0.010082     0.018895
H      0.696845    -0.023136     0.505256
H     -0.743269     0.033874     0.490647
3
step=111 E=5.9421e-8
O     -0.018166     0.010082     0.018906
H      0.696858    -0.023136     0.505251
H     -0.743282     0.033875     0.490642
3
step=121 E=1.3251e-8
O     -0.018166     0.010082     0.018913
H      0.696856    -0.023136     0.505247
H     -0.743280     0.033875     0.490638
