38

C          2.89652        0.01457        0.00000
C         -3.62553       -1.24194        0.00000
C          1.43763        0.00916        0.00000
C         -2.89573       -0.01491        0.00000
C          0.72928       -1.24986        0.00000
C         -0.72776       -1.26162        0.00000
C         -1.43696       -0.00987        0.00000
C          3.62667        1.24267        0.00000
C          0.72850        1.26081        0.00000
C         -5.09243       -1.22804        0.00000
C         -0.72812        1.24907        0.00000
C         -5.05762        1.24154        0.00000
C         -2.90191       -2.47661        0.00000
C          3.60122       -1.22617        0.00000
C          1.48702       -2.47075        0.00000
C          2.90158        2.47771        0.00000
C          5.09259        1.23049        0.00000
C         -1.49300       -2.48511        0.00000
C          5.05619       -1.24216        0.00000
C          1.49306        2.48543        0.00000
C         -3.60170        1.22600        0.00000
C          2.89313       -2.46001        0.00000
C         -1.48560        2.46992        0.00000
C         -2.89324        2.45872        0.00000
O         -5.73232        0.02611        0.00000
O          5.73414       -0.02558        0.00000
O         -5.76754        2.25999        0.00000
O         -5.85685       -2.19746        0.00000
O          5.76677       -2.26035        0.00000
O          5.85316        2.19820        0.00000
H          0.96697       -3.43993        0.00000
H         -3.46593       -3.42533        0.00000
H         -0.96969       -3.45470        0.00000
H          0.96907        3.45448        0.00000
H          3.46502        3.42668        0.00000
H          3.48115       -3.39766        0.00000
H         -0.96684        3.43974        0.00000
H         -3.48093        3.39677        0.00000
